
Gurobi 10.0.2 (win64) logging started Wed Aug 16 23:01:43 2023

Set parameter LogFile to value "Outputs/Logfiles/model_moo(Aug 16,2301).log"
Gurobi Optimizer version 10.0.2 build v10.0.2rc0 (win64)

CPU model: Intel(R) Core(TM) i5-8265U CPU @ 1.60GHz, instruction set [SSE2|AVX|AVX2]
Thread count: 4 physical cores, 8 logical processors, using up to 8 threads

Optimize a model with 355 rows, 1436 columns and 728 nonzeros
Model fingerprint: 0x1556ad10
Variable types: 1062 continuous, 374 integer (374 binary)
Coefficient statistics:
  Matrix range     [1e+00, 1e+00]
  Objective range  [5e-04, 3e-01]
  Bounds range     [1e+00, 1e+00]
  RHS range        [5e+00, 5e+00]
Found heuristic solution: objective -0.0000000
Presolve removed 355 rows and 1436 columns
Presolve time: 0.09s
Presolve: All rows and columns removed

Explored 0 nodes (0 simplex iterations) in 0.16 seconds (0.00 work units)
Thread count was 1 (of 8 available processors)

Solution count 1: 13.8583 

Optimal solution found (tolerance 1.00e-04)
Best objective 1.385834181078e+01, best bound 1.385834181078e+01, gap 0.0000%

    Variable            X 
-------------------------
cover[o74,s13]            1 
cover[o74,s16]            1 
cover[o98,s13]            1 
cover[o98,s16]            1 
cover[o178,s2]            1 
cover[o127,s12]            1 
cover[o127,s13]            1 
cover[o127,s16]            1 
cover[o172,s2]            1 
cover[o172,s3]            1 
cover[o51,s12]            1 
cover[o51,s13]            1 
cover[o51,s16]            1 
cover[o7,s16]            1 
cover[o119,s12]            1 
cover[o119,s13]            1 
cover[o148,s3]            1 
cover[o208,s3]            1 
cover[o108,s12]            1 
cover[o108,s13]            1 
cover[o131,s12]            1 
cover[o10,s16]            1 
cover[o41,s2]            1 
cover[o41,s3]            1 
cover[o144,s3]            1 
cover[o169,s2]            1 
cover[o168,s2]            1 
cover[o168,s3]            1 
cover[o24,s2]            1 
cover[o97,s12]            1 
cover[o97,s13]            1 
cover[o97,s16]            1 
cover[o162,s2]            1 
cover[o162,s3]            1 
cover[o106,s13]            1 
cover[o106,s16]            1 
cover[o157,s2]            1 
cover[o157,s3]            1 
cover[o175,s2]            1 
cover[o136,s12]            1 
cover[o145,s3]            1 
cover[o9,s12]            1 
cover[o9,s13]            1 
cover[o9,s16]            1 
cover[o212,s3]            1 
cover[o139,s12]            1 
cover[o214,s3]            1 
cover[o113,s12]            1 
cover[o113,s13]            1 
cover[o160,s2]            1 
cover[o160,s3]            1 
cover[o104,s12]            1 
cover[o104,s13]            1 
cover[o104,s16]            1 
cover[o37,s2]            1 
cover[o165,s2]            1 
cover[o83,s16]            1 
cover[o114,s12]            1 
cover[o114,s13]            1 
cover[o155,s2]            1 
cover[o155,s3]            1 
cover[o11,s12]            1 
cover[o11,s13]            1 
cover[o11,s16]            1 
cover[o159,s2]            1 
cover[o159,s3]            1 
cover[o48,s12]            1 
cover[o48,s13]            1 
cover[o129,s12]            1 
cover[o129,s13]            1 
cover[o129,s16]            1 
cover[o158,s2]            1 
cover[o158,s3]            1 
cover[o117,s12]            1 
cover[o117,s13]            1 
cover[o153,s2]            1 
cover[o153,s3]            1 
cover[o101,s12]            1 
cover[o101,s13]            1 
cover[o44,s16]            1 
cover[o109,s13]            1 
cover[o109,s16]            1 
cover[o121,s12]            1 
cover[o121,s13]            1 
cover[o13,s12]            1 
cover[o128,s12]            1 
cover[o128,s13]            1 
cover[o128,s16]            1 
cover[o79,s16]            1 
cover[o161,s2]            1 
cover[o161,s3]            1 
cover[o163,s2]            1 
cover[o163,s3]            1 
cover[o130,s12]            1 
cover[o107,s12]            1 
cover[o107,s13]            1 
cover[o42,s2]            1 
cover[o19,s3]            1 
cover[o84,s16]            1 
cover[o132,s12]            1 
cover[o49,s13]            1 
cover[o49,s16]            1 
cover[o116,s12]            1 
cover[o116,s13]            1 
cover[o124,s12]            1 
cover[o124,s13]            1 
cover[o134,s12]            1 
cover[o82,s16]            1 
cover[o207,s3]            1 
cover[o43,s2]            1 
cover[o43,s3]            1 
cover[o174,s2]            1 
cover[o174,s3]            1 
cover[o78,s16]            1 
 select[s13]            1 
  select[s3]            1 
 select[s16]            1 
  select[s2]            1 
 select[s12]            1 
